Set parameter TokenServer to value "opt-license.discovery.wisc.edu"
Set parameter TimeLimit to value 600
Gurobi Optimizer version 9.5.1 build v9.5.1rc2 (linux64)
Thread count: 40 physical cores, 80 logical processors, using up to 32 threads
Optimize a model with 309259 rows, 545292 columns and 1743438 nonzeros
Model fingerprint: 0x45a157b2
Variable types: 542376 continuous, 2916 integer (2916 binary)
Coefficient statistics:
  Matrix range     [1e+00, 2e+03]
  Objective range  [1e+00, 9e+00]
  Bounds range     [1e+00, 1e+00]
  RHS range        [1e+00, 4e+00]
Presolve removed 13940 rows and 41950 columns (presolve time = 6s) ...
Presolve removed 13940 rows and 41950 columns (presolve time = 14s) ...
Presolve removed 13940 rows and 41950 columns
Presolve time: 13.99s
Presolved: 295319 rows, 503342 columns, 1669546 nonzeros
Variable types: 500426 continuous, 2916 integer (2916 binary)
Found heuristic solution: objective 158.5253952

Deterministic concurrent LP optimizer: primal and dual simplex
Showing first log only...


Root simplex log...

Iteration    Objective       Primal Inf.    Dual Inf.      Time
       0    1.8684800e+02   2.943906e+02   1.935555e+09     22s
Concurrent spin time: 0.03s

Solved with dual simplex

Root relaxation: objective 7.746023e+01, 1504 iterations, 3.72 seconds (1.59 work units)

    Nodes    |    Current Node    |     Objective Bounds      |     Work
 Expl Unexpl |  Obj  Depth IntInf | Incumbent    BestBd   Gap | It/Node Time

     0     0   77.46023    0   34  158.52540   77.46023  51.1%     -   27s
     0     0   77.46023    0   62  158.52540   77.46023  51.1%     -   36s
H    0     0                      78.2820871   77.46023  1.05%     -   40s
     0     0   77.63385    0   39   78.28209   77.63385  0.83%     -   46s
     0     0   77.63385    0   11   78.28209   77.63385  0.83%     -   55s
H    0     0                      78.0460192   77.63385  0.53%     -   56s
     0     0 infeasible    0        78.04602   78.04602  0.00%     -   56s

Cutting planes:
  Gomory: 1
  GUB cover: 1
  RLT: 2

Explored 1 nodes (2068 simplex iterations) in 56.18 seconds (21.40 work units)
Thread count was 32 (of 80 available processors)

Solution count 3: 78.046 78.2821 158.525 

Optimal solution found (tolerance 1.00e-04)
Best objective 7.804601916559e+01, best bound 7.804601916559e+01, gap 0.0000%
